c "950110.clq"
p edge 141 548
e 1 5
e 1 6
e 1 12
e 1 18
e 1 24
e 1 25
e 1 29
e 1 31
e 1 72
e 1 78
e 1 108
e 1 123
e 1 141
e 2 5
e 2 6
e 2 7
e 2 9
e 2 10
e 2 11
e 2 12
e 2 13
e 2 15
e 2 16
e 2 21
e 2 22
e 2 26
e 2 27
e 2 28
e 2 31
e 2 35
e 2 36
e 2 47
e 2 52
e 2 54
e 2 56
e 2 59
e 2 60
e 2 61
e 2 64
e 2 73
e 2 78
e 2 81
e 2 87
e 2 91
e 2 100
e 2 120
e 2 126
e 2 130
e 2 140
e 3 5
e 3 7
e 3 9
e 3 14
e 3 45
e 3 82
e 3 117
e 3 131
e 4 5
e 4 6
e 4 8
e 4 9
e 4 10
e 4 12
e 4 13
e 4 18
e 4 19
e 4 24
e 4 26
e 4 27
e 4 31
e 4 39
e 4 42
e 4 46
e 4 55
e 4 62
e 4 66
e 4 71
e 4 72
e 4 84
e 4 85
e 4 93
e 4 96
e 4 98
e 4 105
e 4 115
e 4 125
e 4 136
e 5 6
e 5 7
e 5 8
e 5 14
e 5 17
e 5 18
e 5 21
e 5 27
e 5 30
e 5 41
e 5 47
e 5 49
e 5 55
e 5 56
e 5 57
e 5 64
e 5 75
e 5 78
e 5 83
e 5 84
e 5 88
e 5 94
e 5 95
e 5 110
e 5 120
e 5 124
e 5 141
e 6 7
e 6 8
e 6 10
e 6 11
e 6 12
e 6 16
e 6 19
e 6 23
e 6 30
e 6 33
e 6 40
e 6 47
e 6 51
e 6 54
e 6 58
e 6 62
e 6 63
e 6 86
e 6 111
e 6 128
e 7 8
e 7 11
e 7 14
e 7 15
e 7 16
e 7 17
e 7 20
e 7 23
e 7 24
e 7 27
e 7 32
e 7 34
e 7 37
e 7 38
e 7 45
e 7 49
e 7 58
e 7 65
e 7 84
e 7 87
e 7 104
e 7 108
e 7 116
e 7 118
e 7 120
e 7 134
e 8 9
e 8 22
e 8 25
e 8 26
e 8 28
e 8 29
e 8 39
e 8 40
e 8 42
e 8 65
e 8 71
e 8 106
e 8 110
e 8 111
e 8 119
e 8 125
e 8 135
e 8 137
e 9 10
e 9 11
e 9 14
e 9 17
e 9 19
e 9 20
e 9 22
e 9 36
e 9 38
e 9 41
e 9 44
e 9 48
e 9 50
e 9 55
e 9 59
e 9 61
e 9 68
e 9 89
e 9 90
e 9 98
e 9 106
e 9 113
e 9 122
e 9 126
e 9 140
e 10 13
e 10 15
e 10 31
e 10 41
e 10 42
e 10 89
e 10 103
e 10 121
e 11 16
e 11 51
e 11 79
e 11 116
e 12 13
e 12 19
e 12 28
e 12 32
e 12 34
e 12 40
e 12 56
e 12 63
e 12 76
e 12 78
e 12 103
e 12 131
e 13 20
e 13 21
e 13 22
e 13 35
e 13 38
e 13 45
e 13 65
e 13 66
e 13 69
e 13 74
e 13 76
e 13 82
e 13 93
e 13 94
e 13 98
e 13 123
e 14 15
e 14 29
e 14 30
e 14 44
e 14 49
e 14 74
e 14 121
e 14 130
e 15 21
e 15 33
e 15 57
e 15 80
e 15 81
e 15 98
e 15 138
e 15 139
e 16 17
e 16 18
e 16 23
e 16 25
e 16 26
e 16 32
e 16 33
e 16 52
e 16 58
e 16 64
e 16 79
e 16 80
e 16 93
e 16 113
e 17 30
e 17 33
e 17 35
e 17 43
e 17 46
e 17 62
e 17 80
e 17 92
e 17 95
e 17 102
e 17 115
e 17 128
e 18 20
e 18 60
e 18 62
e 18 81
e 18 92
e 18 105
e 18 106
e 18 114
e 19 80
e 20 23
e 20 37
e 20 46
e 20 47
e 20 53
e 20 87
e 21 24
e 21 52
e 21 53
e 21 67
e 21 83
e 21 100
e 21 103
e 21 118
e 21 124
e 21 127
e 21 136
e 21 141
e 22 32
e 22 39
e 22 50
e 22 63
e 22 91
e 22 95
e 22 105
e 22 132
e 23 25
e 23 35
e 23 36
e 23 37
e 23 57
e 23 89
e 24 42
e 24 51
e 24 67
e 24 133
e 24 139
e 25 43
e 25 48
e 25 101
e 26 28
e 26 29
e 26 50
e 26 53
e 26 59
e 26 70
e 26 75
e 26 90
e 26 93
e 26 99
e 26 119
e 26 134
e 26 138
e 27 34
e 27 43
e 27 51
e 27 54
e 27 57
e 27 76
e 27 79
e 27 96
e 27 102
e 27 111
e 27 121
e 27 129
e 28 55
e 28 69
e 28 70
e 28 73
e 28 74
e 28 89
e 28 131
e 28 132
e 29 36
e 29 44
e 29 76
e 30 50
e 30 53
e 30 103
e 30 116
e 30 119
e 30 130
e 31 77
e 31 97
e 31 104
e 32 56
e 32 73
e 32 85
e 32 97
e 32 107
e 32 115
e 32 137
e 33 34
e 33 37
e 33 69
e 34 63
e 34 70
e 35 38
e 35 43
e 35 75
e 35 77
e 35 102
e 37 39
e 37 40
e 37 41
e 37 44
e 37 45
e 37 48
e 37 52
e 37 66
e 37 68
e 37 83
e 37 84
e 37 86
e 37 87
e 37 117
e 38 136
e 40 60
e 40 88
e 40 106
e 40 114
e 40 119
e 40 135
e 41 97
e 43 46
e 43 67
e 44 68
e 45 48
e 45 49
e 45 61
e 45 75
e 45 111
e 46 71
e 46 79
e 46 82
e 46 104
e 47 54
e 48 72
e 48 107
e 48 109
e 49 59
e 49 71
e 49 100
e 49 104
e 49 108
e 50 86
e 50 114
e 50 126
e 51 65
e 51 88
e 51 110
e 51 122
e 51 133
e 52 58
e 52 115
e 53 70
e 53 94
e 54 132
e 55 61
e 55 68
e 56 100
e 56 114
e 56 127
e 57 64
e 57 99
e 57 101
e 57 102
e 57 131
e 58 81
e 58 88
e 58 91
e 58 112
e 58 118
e 58 129
e 59 60
e 59 82
e 59 134
e 59 135
e 60 139
e 61 77
e 61 129
e 62 66
e 62 74
e 62 99
e 62 113
e 62 116
e 62 123
e 62 127
e 63 85
e 63 99
e 63 117
e 63 120
e 63 132
e 63 134
e 64 67
e 64 69
e 64 101
e 64 122
e 65 77
e 65 109
e 65 128
e 66 72
e 66 73
e 67 92
e 67 141
e 68 85
e 68 96
e 68 113
e 69 90
e 72 129
e 73 83
e 74 91
e 74 112
e 75 121
e 76 112
e 78 95
e 78 105
e 80 133
e 81 86
e 84 107
e 85 92
e 86 90
e 86 96
e 86 107
e 86 127
e 87 137
e 88 101
e 88 110
e 89 97
e 89 139
e 90 94
e 90 137
e 91 125
e 91 136
e 92 126
e 92 128
e 95 108
e 96 140
e 99 130
e 100 109
e 101 112
e 102 109
e 102 124
e 103 125
e 104 117
e 104 124
e 109 118
e 116 122
e 116 138
e 119 123
e 124 135
e 131 133
e 134 140
e 136 138
